NAME : traveling-santa-2018-prime-paths.31004.tour
COMMENT : Length = 31004
COMMENT : Found by LKH [Keld Helsgaun] Sun Jun 12 19:59:24 2022
TYPE : TOUR
DIMENSION : 100
TOUR_SECTION
1
8
35
98
41
78
85
44
26
53
43
91
79
99
23
12
57
37
28
27
4
86
83
7
71
58
84
11
93
30
50
100
3
68
77
66
33
17
69
13
48
59
82
20
18
96
16
65
74
56
97
5
54
90
9
29
40
73
24
92
89
51
45
31
81
42
94
49
61
15
62
88
52
2
38
76
10
36
25
95
64
22
80
19
87
39
34
67
72
55
32
46
75
47
60
21
63
6
14
70
-1
EOF
